c nIsolatedPIs 0
c maxPI 16
p cnf 344 985
c gate 17 5 16 0
5 -17 0
16 -17 0
-5 -16 17 0
c gate 18 5 15 0
5 -18 0
15 -18 0
-5 -15 18 0
c gate 19 7 12 0
7 -19 0
12 -19 0
-7 -12 19 0
c gate 20 6 13 0
6 -20 0
13 -20 0
-6 -13 20 0
c gate 21 19 20 0
19 -21 0
20 -21 0
-19 -20 21 0
c gate 22 5 14 0
5 -22 0
14 -22 0
-5 -14 22 0
c gate 23 -19 -20 0
-19 -23 0
-20 -23 0
19 20 23 0
c gate 24 -21 -23 0
-21 -24 0
-23 -24 0
21 23 24 0
c gate 25 22 24 0
22 -25 0
24 -25 0
-22 -24 25 0
c gate 26 -21 -25 0
-21 -26 0
-25 -26 0
21 25 26 0
c gate 27 18 -26 0
18 -27 0
-26 -27 0
-18 26 27 0
c gate 28 4 16 0
4 -28 0
16 -28 0
-4 -16 28 0
c gate 29 -18 26 0
-18 -29 0
26 -29 0
18 -26 29 0
c gate 30 -27 -29 0
-27 -30 0
-29 -30 0
27 29 30 0
c gate 31 28 30 0
28 -31 0
30 -31 0
-28 -30 31 0
c gate 32 -27 -31 0
-27 -32 0
-31 -32 0
27 31 32 0
c gate 33 17 -32 0
17 -33 0
-32 -33 0
-17 32 33 0
c gate 34 -17 32 0
-17 -34 0
32 -34 0
17 -32 34 0
c gate 35 -33 -34 0
-33 -35 0
-34 -35 0
33 34 35 0
c gate 36 7 10 0
7 -36 0
10 -36 0
-7 -10 36 0
c gate 37 8 9 0
8 -37 0
9 -37 0
-8 -9 37 0
c gate 38 36 37 0
36 -38 0
37 -38 0
-36 -37 38 0
c gate 39 6 11 0
6 -39 0
11 -39 0
-6 -11 39 0
c gate 40 -36 -37 0
-36 -40 0
-37 -40 0
36 37 40 0
c gate 41 -38 -40 0
-38 -41 0
-40 -41 0
38 40 41 0
c gate 42 39 41 0
39 -42 0
41 -42 0
-39 -41 42 0
c gate 43 -38 -42 0
-38 -43 0
-42 -43 0
38 42 43 0
c gate 44 8 10 0
8 -44 0
10 -44 0
-8 -10 44 0
c gate 45 7 11 0
7 -45 0
11 -45 0
-7 -11 45 0
c gate 46 -44 -45 0
-44 -46 0
-45 -46 0
44 45 46 0
c gate 47 44 45 0
44 -47 0
45 -47 0
-44 -45 47 0
c gate 48 -46 -47 0
-46 -48 0
-47 -48 0
46 47 48 0
c gate 49 -43 48 0
-43 -49 0
48 -49 0
43 -48 49 0
c gate 50 4 14 0
4 -50 0
14 -50 0
-4 -14 50 0
c gate 51 6 12 0
6 -51 0
12 -51 0
-6 -12 51 0
c gate 52 5 13 0
5 -52 0
13 -52 0
-5 -13 52 0
c gate 53 -51 -52 0
-51 -53 0
-52 -53 0
51 52 53 0
c gate 54 51 52 0
51 -54 0
52 -54 0
-51 -52 54 0
c gate 55 -53 -54 0
-53 -55 0
-54 -55 0
53 54 55 0
c gate 56 50 55 0
50 -56 0
55 -56 0
-50 -55 56 0
c gate 57 -50 -55 0
-50 -57 0
-55 -57 0
50 55 57 0
c gate 58 -56 -57 0
-56 -58 0
-57 -58 0
56 57 58 0
c gate 59 43 -48 0
43 -59 0
-48 -59 0
-43 48 59 0
c gate 60 -49 -59 0
-49 -60 0
-59 -60 0
49 59 60 0
c gate 61 58 60 0
58 -61 0
60 -61 0
-58 -60 61 0
c gate 62 -49 -61 0
-49 -62 0
-61 -62 0
49 61 62 0
c gate 63 -22 -24 0
-22 -63 0
-24 -63 0
22 24 63 0
c gate 64 -25 -63 0
-25 -64 0
-63 -64 0
25 63 64 0
c gate 65 8 11 0
8 -65 0
11 -65 0
-8 -11 65 0
c gate 66 -36 65 0
-36 -66 0
65 -66 0
36 -65 66 0
c gate 67 64 66 0
64 -67 0
66 -67 0
-64 -66 67 0
c gate 68 -64 -66 0
-64 -68 0
-66 -68 0
64 66 68 0
c gate 69 -67 -68 0
-67 -69 0
-68 -69 0
67 68 69 0
c gate 70 -62 69 0
-62 -70 0
69 -70 0
62 -69 70 0
c gate 71 3 16 0
3 -71 0
16 -71 0
-3 -16 71 0
c gate 72 4 15 0
4 -72 0
15 -72 0
-4 -15 72 0
c gate 73 -54 -56 0
-54 -73 0
-56 -73 0
54 56 73 0
c gate 74 72 -73 0
72 -74 0
-73 -74 0
-72 73 74 0
c gate 75 -72 73 0
-72 -75 0
73 -75 0
72 -73 75 0
c gate 76 -74 -75 0
-74 -76 0
-75 -76 0
74 75 76 0
c gate 77 71 76 0
71 -77 0
76 -77 0
-71 -76 77 0
c gate 78 -71 -76 0
-71 -78 0
-76 -78 0
71 76 78 0
c gate 79 -77 -78 0
-77 -79 0
-78 -79 0
77 78 79 0
c gate 80 62 -69 0
62 -80 0
-69 -80 0
-62 69 80 0
c gate 81 -70 -80 0
-70 -81 0
-80 -81 0
70 80 81 0
c gate 82 79 81 0
79 -82 0
81 -82 0
-79 -81 82 0
c gate 83 -70 -82 0
-70 -83 0
-82 -83 0
70 82 83 0
c gate 84 -28 -30 0
-28 -84 0
-30 -84 0
28 30 84 0
c gate 85 -31 -84 0
-31 -85 0
-84 -85 0
31 84 85 0
c gate 86 -47 -67 0
-47 -86 0
-67 -86 0
47 67 86 0
c gate 87 6 14 0
6 -87 0
14 -87 0
-6 -14 87 0
c gate 88 7 13 0
7 -88 0
13 -88 0
-7 -13 88 0
c gate 89 8 12 0
8 -89 0
12 -89 0
-8 -12 89 0
c gate 90 -88 -89 0
-88 -90 0
-89 -90 0
88 89 90 0
c gate 91 88 89 0
88 -91 0
89 -91 0
-88 -89 91 0
c gate 92 -90 -91 0
-90 -92 0
-91 -92 0
90 91 92 0
c gate 93 87 92 0
87 -93 0
92 -93 0
-87 -92 93 0
c gate 94 -87 -92 0
-87 -94 0
-92 -94 0
87 92 94 0
c gate 95 -93 -94 0
-93 -95 0
-94 -95 0
93 94 95 0
c gate 96 -86 95 0
-86 -96 0
95 -96 0
86 -95 96 0
c gate 97 86 -95 0
86 -97 0
-95 -97 0
-86 95 97 0
c gate 98 -96 -97 0
-96 -98 0
-97 -98 0
96 97 98 0
c gate 99 85 98 0
85 -99 0
98 -99 0
-85 -98 99 0
c gate 100 -85 -98 0
-85 -100 0
-98 -100 0
85 98 100 0
c gate 101 -99 -100 0
-99 -101 0
-100 -101 0
99 100 101 0
c gate 102 -83 101 0
-83 -102 0
101 -102 0
83 -101 102 0
c gate 103 -74 -77 0
-74 -103 0
-77 -103 0
74 77 103 0
c gate 104 83 -101 0
83 -104 0
-101 -104 0
-83 101 104 0
c gate 105 -102 -104 0
-102 -105 0
-104 -105 0
102 104 105 0
c gate 106 -103 105 0
-103 -106 0
105 -106 0
103 -105 106 0
c gate 107 -102 -106 0
-102 -107 0
-106 -107 0
102 106 107 0
c gate 108 8 13 0
8 -108 0
13 -108 0
-8 -13 108 0
c gate 109 -96 -99 0
-96 -109 0
-99 -109 0
96 99 109 0
c gate 110 108 -109 0
108 -110 0
-109 -110 0
-108 109 110 0
c gate 111 -108 109 0
-108 -111 0
109 -111 0
108 -109 111 0
c gate 112 -110 -111 0
-110 -112 0
-111 -112 0
110 111 112 0
c gate 113 107 112 0
107 -113 0
112 -113 0
-107 -112 113 0
c gate 114 -107 -112 0
-107 -114 0
-112 -114 0
107 112 114 0
c gate 115 -113 -114 0
-113 -115 0
-114 -115 0
113 114 115 0
c gate 116 35 -115 0
35 -116 0
-115 -116 0
-35 115 116 0
c gate 117 -35 115 0
-35 -117 0
115 -117 0
35 -115 117 0
c gate 118 -116 -117 0
-116 -118 0
-117 -118 0
116 117 118 0
c gate 119 7 14 0
7 -119 0
14 -119 0
-7 -14 119 0
c gate 120 -91 -93 0
-91 -120 0
-93 -120 0
91 93 120 0
c gate 121 119 -120 0
119 -121 0
-120 -121 0
-119 120 121 0
c gate 122 -119 120 0
-119 -122 0
120 -122 0
119 -120 122 0
c gate 123 -121 -122 0
-121 -123 0
-122 -123 0
121 122 123 0
c gate 124 6 15 0
6 -124 0
15 -124 0
-6 -15 124 0
c gate 125 123 -124 0
123 -125 0
-124 -125 0
-123 124 125 0
c gate 126 -123 124 0
-123 -126 0
124 -126 0
123 -124 126 0
c gate 127 -125 -126 0
-125 -127 0
-126 -127 0
125 126 127 0
c gate 128 118 127 0
118 -128 0
127 -128 0
-118 -127 128 0
c gate 129 -118 -127 0
-118 -129 0
-127 -129 0
118 127 129 0
c gate 130 -128 -129 0
-128 -130 0
-129 -130 0
128 129 130 0
c gate 131 5 11 0
5 -131 0
11 -131 0
-5 -11 131 0
c gate 132 7 9 0
7 -132 0
9 -132 0
-7 -9 132 0
c gate 133 6 10 0
6 -133 0
10 -133 0
-6 -10 133 0
c gate 134 -132 -133 0
-132 -134 0
-133 -134 0
132 133 134 0
c gate 135 132 133 0
132 -135 0
133 -135 0
-132 -133 135 0
c gate 136 -134 -135 0
-134 -136 0
-135 -136 0
134 135 136 0
c gate 137 131 136 0
131 -137 0
136 -137 0
-131 -136 137 0
c gate 138 -131 -136 0
-131 -138 0
-136 -138 0
131 136 138 0
c gate 139 -137 -138 0
-137 -139 0
-138 -139 0
137 138 139 0
c gate 140 5 10 0
5 -140 0
10 -140 0
-5 -10 140 0
c gate 141 6 9 0
6 -141 0
9 -141 0
-6 -9 141 0
c gate 142 -140 -141 0
-140 -142 0
-141 -142 0
140 141 142 0
c gate 143 140 141 0
140 -143 0
141 -143 0
-140 -141 143 0
c gate 144 -142 -143 0
-142 -144 0
-143 -144 0
142 143 144 0
c gate 145 4 11 0
4 -145 0
11 -145 0
-4 -11 145 0
c gate 146 144 -145 0
144 -146 0
-145 -146 0
-144 145 146 0
c gate 147 -142 -146 0
-142 -147 0
-146 -147 0
142 146 147 0
c gate 148 139 147 0
139 -148 0
147 -148 0
-139 -147 148 0
c gate 149 2 14 0
2 -149 0
14 -149 0
-2 -14 149 0
c gate 150 4 12 0
4 -150 0
12 -150 0
-4 -12 150 0
c gate 151 3 13 0
3 -151 0
13 -151 0
-3 -13 151 0
c gate 152 -150 -151 0
-150 -152 0
-151 -152 0
150 151 152 0
c gate 153 150 151 0
150 -153 0
151 -153 0
-150 -151 153 0
c gate 154 -152 -153 0
-152 -154 0
-153 -154 0
152 153 154 0
c gate 155 149 154 0
149 -155 0
154 -155 0
-149 -154 155 0
c gate 156 -149 -154 0
-149 -156 0
-154 -156 0
149 154 156 0
c gate 157 -155 -156 0
-155 -157 0
-156 -157 0
155 156 157 0
c gate 158 -139 -147 0
-139 -158 0
-147 -158 0
139 147 158 0
c gate 159 -148 -158 0
-148 -159 0
-158 -159 0
148 158 159 0
c gate 160 157 159 0
157 -160 0
159 -160 0
-157 -159 160 0
c gate 161 -148 -160 0
-148 -161 0
-160 -161 0
148 160 161 0
c gate 162 3 14 0
3 -162 0
14 -162 0
-3 -14 162 0
c gate 163 5 12 0
5 -163 0
12 -163 0
-5 -12 163 0
c gate 164 4 13 0
4 -164 0
13 -164 0
-4 -13 164 0
c gate 165 -163 -164 0
-163 -165 0
-164 -165 0
163 164 165 0
c gate 166 163 164 0
163 -166 0
164 -166 0
-163 -164 166 0
c gate 167 -165 -166 0
-165 -167 0
-166 -167 0
165 166 167 0
c gate 168 162 167 0
162 -168 0
167 -168 0
-162 -167 168 0
c gate 169 -162 -167 0
-162 -169 0
-167 -169 0
162 167 169 0
c gate 170 -168 -169 0
-168 -170 0
-169 -170 0
168 169 170 0
c gate 171 -135 -137 0
-135 -171 0
-137 -171 0
135 137 171 0
c gate 172 -39 -41 0
-39 -172 0
-41 -172 0
39 41 172 0
c gate 173 -42 -172 0
-42 -173 0
-172 -173 0
42 172 173 0
c gate 174 -171 173 0
-171 -174 0
173 -174 0
171 -173 174 0
c gate 175 171 -173 0
171 -175 0
-173 -175 0
-171 173 175 0
c gate 176 -174 -175 0
-174 -176 0
-175 -176 0
174 175 176 0
c gate 177 170 176 0
170 -177 0
176 -177 0
-170 -176 177 0
c gate 178 -170 -176 0
-170 -178 0
-176 -178 0
170 176 178 0
c gate 179 -177 -178 0
-177 -179 0
-178 -179 0
177 178 179 0
c gate 180 -161 179 0
-161 -180 0
179 -180 0
161 -179 180 0
c gate 181 1 16 0
1 -181 0
16 -181 0
-1 -16 181 0
c gate 182 2 15 0
2 -182 0
15 -182 0
-2 -15 182 0
c gate 183 -153 -155 0
-153 -183 0
-155 -183 0
153 155 183 0
c gate 184 182 -183 0
182 -184 0
-183 -184 0
-182 183 184 0
c gate 185 -182 183 0
-182 -185 0
183 -185 0
182 -183 185 0
c gate 186 -184 -185 0
-184 -186 0
-185 -186 0
184 185 186 0
c gate 187 181 186 0
181 -187 0
186 -187 0
-181 -186 187 0
c gate 188 -181 -186 0
-181 -188 0
-186 -188 0
181 186 188 0
c gate 189 -187 -188 0
-187 -189 0
-188 -189 0
187 188 189 0
c gate 190 161 -179 0
161 -190 0
-179 -190 0
-161 179 190 0
c gate 191 -180 -190 0
-180 -191 0
-190 -191 0
180 190 191 0
c gate 192 189 191 0
189 -192 0
191 -192 0
-189 -191 192 0
c gate 193 -180 -192 0
-180 -193 0
-192 -193 0
180 192 193 0
c gate 194 2 16 0
2 -194 0
16 -194 0
-2 -16 194 0
c gate 195 3 15 0
3 -195 0
15 -195 0
-3 -15 195 0
c gate 196 -166 -168 0
-166 -196 0
-168 -196 0
166 168 196 0
c gate 197 195 -196 0
195 -197 0
-196 -197 0
-195 196 197 0
c gate 198 -195 196 0
-195 -198 0
196 -198 0
195 -196 198 0
c gate 199 -197 -198 0
-197 -199 0
-198 -199 0
197 198 199 0
c gate 200 194 199 0
194 -200 0
199 -200 0
-194 -199 200 0
c gate 201 -194 -199 0
-194 -201 0
-199 -201 0
194 199 201 0
c gate 202 -200 -201 0
-200 -202 0
-201 -202 0
200 201 202 0
c gate 203 -174 -177 0
-174 -203 0
-177 -203 0
174 177 203 0
c gate 204 -58 -60 0
-58 -204 0
-60 -204 0
58 60 204 0
c gate 205 -61 -204 0
-61 -205 0
-204 -205 0
61 204 205 0
c gate 206 -203 205 0
-203 -206 0
205 -206 0
203 -205 206 0
c gate 207 203 -205 0
203 -207 0
-205 -207 0
-203 205 207 0
c gate 208 -206 -207 0
-206 -208 0
-207 -208 0
206 207 208 0
c gate 209 202 208 0
202 -209 0
208 -209 0
-202 -208 209 0
c gate 210 -202 -208 0
-202 -210 0
-208 -210 0
202 208 210 0
c gate 211 -209 -210 0
-209 -211 0
-210 -211 0
209 210 211 0
c gate 212 -193 211 0
-193 -212 0
211 -212 0
193 -211 212 0
c gate 213 -184 -187 0
-184 -213 0
-187 -213 0
184 187 213 0
c gate 214 193 -211 0
193 -214 0
-211 -214 0
-193 211 214 0
c gate 215 -212 -214 0
-212 -215 0
-214 -215 0
212 214 215 0
c gate 216 -213 215 0
-213 -216 0
215 -216 0
213 -215 216 0
c gate 217 -212 -216 0
-212 -217 0
-216 -217 0
212 216 217 0
c gate 218 -197 -200 0
-197 -218 0
-200 -218 0
197 200 218 0
c gate 219 -206 -209 0
-206 -219 0
-209 -219 0
206 209 219 0
c gate 220 -79 -81 0
-79 -220 0
-81 -220 0
79 81 220 0
c gate 221 -82 -220 0
-82 -221 0
-220 -221 0
82 220 221 0
c gate 222 -219 221 0
-219 -222 0
221 -222 0
219 -221 222 0
c gate 223 219 -221 0
219 -223 0
-221 -223 0
-219 221 223 0
c gate 224 -222 -223 0
-222 -224 0
-223 -224 0
222 223 224 0
c gate 225 -218 224 0
-218 -225 0
224 -225 0
218 -224 225 0
c gate 226 218 -224 0
218 -226 0
-224 -226 0
-218 224 226 0
c gate 227 -225 -226 0
-225 -227 0
-226 -227 0
225 226 227 0
c gate 228 217 -227 0
217 -228 0
-227 -228 0
-217 227 228 0
c gate 229 -222 -225 0
-222 -229 0
-225 -229 0
222 225 229 0
c gate 230 103 -105 0
103 -230 0
-105 -230 0
-103 105 230 0
c gate 231 -106 -230 0
-106 -231 0
-230 -231 0
106 230 231 0
c gate 232 229 -231 0
229 -232 0
-231 -232 0
-229 231 232 0
c gate 233 -229 231 0
-229 -233 0
231 -233 0
229 -231 233 0
c gate 234 -232 -233 0
-232 -234 0
-233 -234 0
232 233 234 0
c gate 235 -228 234 0
-228 -235 0
234 -235 0
228 -234 235 0
c gate 236 -157 -159 0
-157 -236 0
-159 -236 0
157 159 236 0
c gate 237 -160 -236 0
-160 -237 0
-236 -237 0
160 236 237 0
c gate 238 4 10 0
4 -238 0
10 -238 0
-4 -10 238 0
c gate 239 5 9 0
5 -239 0
9 -239 0
-5 -9 239 0
c gate 240 238 239 0
238 -240 0
239 -240 0
-238 -239 240 0
c gate 241 3 11 0
3 -241 0
11 -241 0
-3 -11 241 0
c gate 242 -238 -239 0
-238 -242 0
-239 -242 0
238 239 242 0
c gate 243 -240 -242 0
-240 -243 0
-242 -243 0
240 242 243 0
c gate 244 241 243 0
241 -244 0
243 -244 0
-241 -243 244 0
c gate 245 -240 -244 0
-240 -245 0
-244 -245 0
240 244 245 0
c gate 246 -144 145 0
-144 -246 0
145 -246 0
144 -145 246 0
c gate 247 -146 -246 0
-146 -247 0
-246 -247 0
146 246 247 0
c gate 248 245 247 0
245 -248 0
247 -248 0
-245 -247 248 0
c gate 249 -245 -247 0
-245 -249 0
-247 -249 0
245 247 249 0
c gate 250 -248 -249 0
-248 -250 0
-249 -250 0
248 249 250 0
c gate 251 1 14 0
1 -251 0
14 -251 0
-1 -14 251 0
c gate 252 2 13 0
2 -252 0
13 -252 0
-2 -13 252 0
c gate 253 3 12 0
3 -253 0
12 -253 0
-3 -12 253 0
c gate 254 -252 -253 0
-252 -254 0
-253 -254 0
252 253 254 0
c gate 255 252 253 0
252 -255 0
253 -255 0
-252 -253 255 0
c gate 256 -254 -255 0
-254 -256 0
-255 -256 0
254 255 256 0
c gate 257 251 256 0
251 -257 0
256 -257 0
-251 -256 257 0
c gate 258 -251 -256 0
-251 -258 0
-256 -258 0
251 256 258 0
c gate 259 -257 -258 0
-257 -259 0
-258 -259 0
257 258 259 0
c gate 260 250 -259 0
250 -260 0
-259 -260 0
-250 259 260 0
c gate 261 -248 -260 0
-248 -261 0
-260 -261 0
248 260 261 0
c gate 262 237 261 0
237 -262 0
261 -262 0
-237 -261 262 0
c gate 263 1 15 0
1 -263 0
15 -263 0
-1 -15 263 0
c gate 264 -255 -257 0
-255 -264 0
-257 -264 0
255 257 264 0
c gate 265 263 -264 0
263 -265 0
-264 -265 0
-263 264 265 0
c gate 266 -263 264 0
-263 -266 0
264 -266 0
263 -264 266 0
c gate 267 -265 -266 0
-265 -267 0
-266 -267 0
265 266 267 0
c gate 268 -237 -261 0
-237 -268 0
-261 -268 0
237 261 268 0
c gate 269 -262 -268 0
-262 -269 0
-268 -269 0
262 268 269 0
c gate 270 267 269 0
267 -270 0
269 -270 0
-267 -269 270 0
c gate 271 -262 -270 0
-262 -271 0
-270 -271 0
262 270 271 0
c gate 272 -189 -191 0
-189 -272 0
-191 -272 0
189 191 272 0
c gate 273 -192 -272 0
-192 -273 0
-272 -273 0
192 272 273 0
c gate 274 -271 273 0
-271 -274 0
273 -274 0
271 -273 274 0
c gate 275 213 -215 0
213 -275 0
-215 -275 0
-213 215 275 0
c gate 276 -216 -275 0
-216 -276 0
-275 -276 0
216 275 276 0
c gate 277 274 -276 0
274 -277 0
-276 -277 0
-274 276 277 0
c gate 278 -274 276 0
-274 -278 0
276 -278 0
274 -276 278 0
c gate 279 -277 -278 0
-277 -279 0
-278 -279 0
277 278 279 0
c gate 280 -217 227 0
-217 -280 0
227 -280 0
217 -227 280 0
c gate 281 271 -273 0
271 -281 0
-273 -281 0
-271 273 281 0
c gate 282 -274 -281 0
-274 -282 0
-281 -282 0
274 281 282 0
c gate 283 265 282 0
265 -283 0
282 -283 0
-265 -282 283 0
c gate 284 -267 -269 0
-267 -284 0
-269 -284 0
267 269 284 0
c gate 285 -270 -284 0
-270 -285 0
-284 -285 0
270 284 285 0
c gate 286 1 13 0
1 -286 0
13 -286 0
-1 -13 286 0
c gate 287 2 12 0
2 -287 0
12 -287 0
-2 -12 287 0
c gate 288 286 287 0
286 -288 0
287 -288 0
-286 -287 288 0
c gate 289 3 10 0
3 -289 0
10 -289 0
-3 -10 289 0
c gate 290 4 9 0
4 -290 0
9 -290 0
-4 -9 290 0
c gate 291 289 290 0
289 -291 0
290 -291 0
-289 -290 291 0
c gate 292 2 11 0
2 -292 0
11 -292 0
-2 -11 292 0
c gate 293 -289 -290 0
-289 -293 0
-290 -293 0
289 290 293 0
c gate 294 -291 -293 0
-291 -294 0
-293 -294 0
291 293 294 0
c gate 295 292 294 0
292 -295 0
294 -295 0
-292 -294 295 0
c gate 296 -291 -295 0
-291 -296 0
-295 -296 0
291 295 296 0
c gate 297 -241 -243 0
-241 -297 0
-243 -297 0
241 243 297 0
c gate 298 -244 -297 0
-244 -298 0
-297 -298 0
244 297 298 0
c gate 299 -296 298 0
-296 -299 0
298 -299 0
296 -298 299 0
c gate 300 -286 -287 0
-286 -300 0
-287 -300 0
286 287 300 0
c gate 301 -288 -300 0
-288 -301 0
-300 -301 0
288 300 301 0
c gate 302 296 -298 0
296 -302 0
-298 -302 0
-296 298 302 0
c gate 303 -299 -302 0
-299 -303 0
-302 -303 0
299 302 303 0
c gate 304 301 303 0
301 -304 0
303 -304 0
-301 -303 304 0
c gate 305 -299 -304 0
-299 -305 0
-304 -305 0
299 304 305 0
c gate 306 -250 259 0
-250 -306 0
259 -306 0
250 -259 306 0
c gate 307 -260 -306 0
-260 -307 0
-306 -307 0
260 306 307 0
c gate 308 -305 -307 0
-305 -308 0
-307 -308 0
305 307 308 0
c gate 309 305 307 0
305 -309 0
307 -309 0
-305 -307 309 0
c gate 310 -308 -309 0
-308 -310 0
-309 -310 0
308 309 310 0
c gate 311 -288 -310 0
-288 -311 0
-310 -311 0
288 310 311 0
c gate 312 -292 -294 0
-292 -312 0
-294 -312 0
292 294 312 0
c gate 313 -295 -312 0
-295 -313 0
-312 -313 0
295 312 313 0
c gate 314 3 9 0
3 -314 0
9 -314 0
-3 -9 314 0
c gate 315 2 10 0
2 -315 0
10 -315 0
-2 -10 315 0
c gate 316 314 315 0
314 -316 0
315 -316 0
-314 -315 316 0
c gate 317 -314 -315 0
-314 -317 0
-315 -317 0
314 315 317 0
c gate 318 1 11 0
1 -318 0
11 -318 0
-1 -11 318 0
c gate 319 -317 318 0
-317 -319 0
318 -319 0
317 -318 319 0
c gate 320 -316 -319 0
-316 -320 0
-319 -320 0
316 319 320 0
c gate 321 313 -320 0
313 -321 0
-320 -321 0
-313 320 321 0
c gate 322 1 12 0
1 -322 0
12 -322 0
-1 -12 322 0
c gate 323 -313 320 0
-313 -323 0
320 -323 0
313 -320 323 0
c gate 324 -321 -323 0
-321 -324 0
-323 -324 0
321 323 324 0
c gate 325 322 324 0
322 -325 0
324 -325 0
-322 -324 325 0
c gate 326 -321 -325 0
-321 -326 0
-325 -326 0
321 325 326 0
c gate 327 -301 -303 0
-301 -327 0
-303 -327 0
301 303 327 0
c gate 328 -304 -327 0
-304 -328 0
-327 -328 0
304 327 328 0
c gate 329 -326 328 0
-326 -329 0
328 -329 0
326 -328 329 0
c gate 330 288 310 0
288 -330 0
310 -330 0
-288 -310 330 0
c gate 331 329 -330 0
329 -331 0
-330 -331 0
-329 330 331 0
c gate 332 -311 331 0
-311 -332 0
331 -332 0
311 -331 332 0
c gate 333 -285 -332 0
-285 -333 0
-332 -333 0
285 332 333 0
c gate 334 -283 -333 0
-283 -334 0
-333 -334 0
283 333 334 0
c gate 335 -265 -282 0
-265 -335 0
-282 -335 0
265 282 335 0
c gate 336 285 332 0
285 -336 0
332 -336 0
-285 -332 336 0
c gate 337 -308 -330 0
-308 -337 0
-330 -337 0
308 330 337 0
c gate 338 -336 337 0
-336 -338 0
337 -338 0
336 -337 338 0
c gate 339 -335 -338 0
-335 -339 0
-338 -339 0
335 338 339 0
c gate 340 334 339 0
334 -340 0
339 -340 0
-334 -339 340 0
c gate 341 -280 340 0
-280 -341 0
340 -341 0
280 -340 341 0
c gate 342 -279 341 0
-279 -342 0
341 -342 0
279 -341 342 0
c gate 343 235 342 0
235 -343 0
342 -343 0
-235 -342 343 0
c gate 344 -130 343 0
-130 -344 0
343 -344 0
130 -343 344 0
c PO
344 0
